Version identifier: 20.1.0.0 | 2020-11-10 | 9bedb6d68
Tried aggregator 2 times.
MIP Presolve eliminated 665 rows and 386 columns.
MIP Presolve modified 1309 coefficients.
Aggregator did 83 substitutions.
Reduced MIP has 533 rows, 438 columns, and 1694 nonzeros.
Reduced MIP has 116 binaries, 322 generals, 0 SOSs, and 0 indicators.
Presolve time = 0.01 sec. (2.78 ticks)
Found incumbent of value 644.000000 after 0.01 sec. (4.32 ticks)
Probing fixed 15 vars, tightened 124 bounds.
Probing time = 0.00 sec. (0.36 ticks)
Tried aggregator 1 time.
Detecting symmetries...
MIP Presolve eliminated 225 rows and 15 columns.
MIP Presolve modified 32 coefficients.
Reduced MIP has 308 rows, 423 columns, and 1004 nonzeros.
Reduced MIP has 157 binaries, 266 generals, 0 SOSs, and 0 indicators.
Presolve time = 0.00 sec. (1.10 ticks)
Probing time = 0.00 sec. (0.08 ticks)
Clique table members: 16.
MIP emphasis: balance optimality and feasibility.
MIP search method: dynamic search.
Parallel mode: deterministic, using up to 24 threads.
Root relaxation solution time = 0.00 sec. (0.80 ticks)

        Nodes                                         Cuts/
   Node  Left     Objective  IInf  Best Integer    Best Bound    ItCnt     Gap

*     0+    0                          644.0000        0.0000           100.00%
      0     0        0.0000    17      644.0000        0.0000      110  100.00%
*     0+    0                           10.0000        0.0000           100.00%
      0     0        1.1714   141       10.0000      Cuts: 33      295   88.29%
      0     0        2.3514   157       10.0000      Cuts: 98      425   76.49%
      0     0        2.4512   154       10.0000      Cuts: 52      464   75.49%
      0     0        2.4512   175       10.0000      Cuts: 32      493   75.49%
      0     0        3.0012   153       10.0000      Cuts: 20      619   69.99%
      0     0        3.0060   147       10.0000      Cuts: 39      657   69.94%
      0     0        3.0637   158       10.0000      Cuts: 17      749   69.36%
      0     0        3.2689   167       10.0000      Cuts: 65      817   67.31%
      0     0        3.3607   149       10.0000      Cuts: 60      896   66.39%
      0     0        3.4208   149       10.0000      Cuts: 44      918   65.79%
*     0+    0                            9.0000        3.4208            61.99%
      0     0        3.5238   105        9.0000      Cuts: 43      935   60.85%
      0     0        3.5313   134        9.0000      Cuts: 25      962   60.76%
      0     0        3.5313   149        9.0000      Cuts: 40      994   60.76%
*     0+    0                            8.0000        3.5313            55.86%
      0     0        cutoff              8.0000        8.0000      994    0.00%
Elapsed time = 0.29 sec. (63.32 ticks, tree = 0.01 MB, solutions = 4)

Cover cuts applied:  6
Implied bound cuts applied:  9
Flow cuts applied:  2
Mixed integer rounding cuts applied:  5
Zero-half cuts applied:  36
Lift and project cuts applied:  1
Gomory fractional cuts applied:  3

Root node processing (before b&c):
  Real time             =    0.29 sec. (63.37 ticks)
Parallel b&c, 24 threads:
  Real time             =    0.00 sec. (0.00 ticks)
  Sync time (average)   =    0.00 sec.
  Wait time (average)   =    0.00 sec.
                          ------------
Total (root+branch&cut) =    0.29 sec. (63.37 ticks)

Solution status = Optimal
Solution LB = 8
Solution UB = 8
Runtime = 0.296453 seconds
	Command being timed: "/home/min/git_repos/CS598MEBProject/CNT-ILP/build/cnt -s 2 ./output/k6_n15/simC_c1_k6_n15_u2_s3_del02.input-left.cnp"
	User time (seconds): 4.58
	System time (seconds): 0.02
	Percent of CPU this job got: 1404%
	Elapsed (wall clock) time (h:mm:ss or m:ss): 0:00.32
	Average shared text size (kbytes): 0
	Average unshared data size (kbytes): 0
	Average stack size (kbytes): 0
	Average total size (kbytes): 0
	Maximum resident set size (kbytes): 46096
	Average resident set size (kbytes): 0
	Major (requiring I/O) page faults: 0
	Minor (reclaiming a frame) page faults: 8597
	Voluntary context switches: 1541
	Involuntary context switches: 785
	Swaps: 0
	File system inputs: 0
	File system outputs: 16
	Socket messages sent: 0
	Socket messages received: 0
	Signals delivered: 0
	Page size (bytes): 4096
	Exit status: 0
